(set-logic QF_S)
(declare-fun var0 () String)
(assert (str.in.re var0 (re.++ (re.* (re.+ (str.to.re "00"))) (re.++ (re.+ (re.+ (str.to.re "11"))) (re.++ (re.* (re.+ (str.to.re "22"))) (re.++ (re.+ (re.union (str.to.re "333") (str.to.re "444"))) (re.++ (re.+ (re.* (str.to.re "5"))) (re.++ (re.* (re.* (str.to.re "66"))) (re.++ (re.union (re.* (str.to.re "7")) (re.* (str.to.re "888"))) (re.++ (re.* (re.union (str.to.re "99") (str.to.re "aaa"))) (re.++ (re.union (re.union (str.to.re "bb") (str.to.re "ccc")) (re.union (str.to.re "d") (str.to.re "eee"))) (re.++ (re.+ (re.union (str.to.re "ff") (str.to.re "gg"))) (re.++ (re.union (re.+ (str.to.re "hh")) (re.+ (str.to.re "i"))) (re.++ (re.union (re.* (str.to.re "j")) (re.* (str.to.re "kk"))) (re.++ (re.+ (re.+ (str.to.re "lll"))) (re.++ (re.* (re.+ (str.to.re "mmm"))) (re.++ (re.+ (re.union (str.to.re "nnn") (str.to.re "o"))) (re.++ (re.+ (re.union (str.to.re "p") (str.to.re "qqq"))) (re.++ (re.* (re.+ (str.to.re "r"))) (re.++ (re.+ (re.union (str.to.re "ss") (str.to.re "ttt"))) (re.++ (re.* (re.union (str.to.re "uu") (str.to.re "vv"))) (re.++ (re.+ (re.union (str.to.re "www") (str.to.re "xx"))) (re.++ (re.+ (re.+ (str.to.re "yyy"))) (re.++ (re.union (re.union (str.to.re "z") (str.to.re "A")) (re.union (str.to.re "B") (str.to.re "CC"))) (re.++ (re.* (re.* (str.to.re "D"))) (re.++ (re.+ (re.* (str.to.re "EE"))) (re.++ (re.+ (re.+ (str.to.re "F"))) (re.++ (re.union (re.+ (str.to.re "G")) (re.+ (str.to.re "HHH"))) (re.++ (re.* (re.* (str.to.re "II"))) (re.++ (re.union (re.+ (str.to.re "J")) (re.+ (str.to.re "K"))) (re.++ (re.+ (re.union (str.to.re "LLL") (str.to.re "M"))) (re.++ (re.* (re.union (str.to.re "NN") (str.to.re "O"))) (re.++ (re.* (re.* (str.to.re "PPP"))) (re.++ (re.+ (re.* (str.to.re "QQ"))) (re.++ (re.union (re.* (str.to.re "R")) (re.* (str.to.re "SSS"))) (re.++ (re.union (re.+ (str.to.re "T")) (re.+ (str.to.re "U"))) (re.++ (re.* (re.* (str.to.re "VV"))) (re.union (re.+ (str.to.re "WW")) (re.+ (str.to.re "XX"))))))))))))))))))))))))))))))))))))))))
(assert (not (str.in.re var0 (re.++ (re.union (re.union (str.to.re "0") (str.to.re "111")) (re.union (str.to.re "2") (str.to.re "333"))) (re.++ (re.+ (re.* (str.to.re "4"))) (re.++ (re.+ (re.* (str.to.re "555"))) (re.++ (re.+ (re.union (str.to.re "6") (str.to.re "77"))) (re.++ (re.* (re.* (str.to.re "8"))) (re.++ (re.+ (re.union (str.to.re "9") (str.to.re "aa"))) (re.++ (re.union (re.union (str.to.re "bb") (str.to.re "cc")) (re.union (str.to.re "dd") (str.to.re "eee"))) (re.++ (re.* (re.+ (str.to.re "ff"))) (re.++ (re.* (re.union (str.to.re "gg") (str.to.re "h"))) (re.++ (re.+ (re.union (str.to.re "i") (str.to.re "jj"))) (re.++ (re.union (re.+ (str.to.re "kk")) (re.+ (str.to.re "ll"))) (re.++ (re.union (re.+ (str.to.re "mmm")) (re.+ (str.to.re "nnn"))) (re.++ (re.+ (re.union (str.to.re "ooo") (str.to.re "p"))) (re.++ (re.union (re.+ (str.to.re "qq")) (re.+ (str.to.re "r"))) (re.++ (re.union (re.union (str.to.re "sss") (str.to.re "t")) (re.union (str.to.re "uu") (str.to.re "vv"))) (re.++ (re.* (re.+ (str.to.re "w"))) (re.++ (re.+ (re.+ (str.to.re "xxx"))) (re.++ (re.+ (re.+ (str.to.re "y"))) (re.++ (re.* (re.+ (str.to.re "zz"))) (re.++ (re.union (re.+ (str.to.re "A")) (re.+ (str.to.re "BBB"))) (re.++ (re.* (re.+ (str.to.re "CCC"))) (re.++ (re.* (re.* (str.to.re "D"))) (re.++ (re.* (re.+ (str.to.re "E"))) (re.++ (re.* (re.* (str.to.re "FFF"))) (re.++ (re.* (re.union (str.to.re "G") (str.to.re "HHH"))) (re.++ (re.+ (re.+ (str.to.re "III"))) (re.++ (re.* (re.* (str.to.re "J"))) (re.++ (re.union (re.* (str.to.re "KKK")) (re.* (str.to.re "L"))) (re.++ (re.union (re.union (str.to.re "MM") (str.to.re "N")) (re.union (str.to.re "O") (str.to.re "PP"))) (re.++ (re.* (re.+ (str.to.re "QQ"))) (re.++ (re.union (re.union (str.to.re "RR") (str.to.re "S")) (re.union (str.to.re "T") (str.to.re "UU"))) (re.++ (re.union (re.* (str.to.re "VVV")) (re.* (str.to.re "W"))) (re.++ (re.union (re.+ (str.to.re "XX")) (re.+ (str.to.re "YYY"))) (re.++ (re.union (re.union (str.to.re "ZZ") (str.to.re "!!")) (re.union (str.to.re """""""") (str.to.re "##"))) (re.++ (re.union (re.union (str.to.re "$$") (str.to.re "%%")) (re.union (str.to.re "&&&") (str.to.re "''"))) (re.* (re.* (str.to.re "(")))))))))))))))))))))))))))))))))))))))))
(check-sat)